; Copyright (c) 2026 The RIINA Authors. All rights reserved.
; Auto-generated from 02_FORMAL/coq/domains/OMEGA001_NetworkDefense.v (30 validations)
; Generated by scripts/generate-full-stack.py
;
; Translation Validation for OMEGA001_NetworkDefense
; Layer 9: Verifies compiler backend preserves formal semantics.
; Each assertion checks source IR ≡ target code for a proven property.

(set-logic QF_LIA)
(set-option :produce-models true)

; IR node representation
(declare-sort IRNode 0)
(declare-sort TargetNode 0)

; tb_refill: source semantics (matches Coq)
(declare-fun source_tb_refill () Bool)
(declare-fun target_tb_refill () Bool)
(assert (= source_tb_refill target_tb_refill))

; tb_available: source semantics (matches Coq)
(declare-fun source_tb_available () Bool)
(declare-fun target_tb_available () Bool)
(assert (= source_tb_available target_tb_available))

; cap_valid: source semantics (matches Coq)
(declare-fun source_cap_valid () Bool)
(declare-fun target_cap_valid () Bool)
(assert (= source_cap_valid target_cap_valid))

; cap_permits: source semantics (matches Coq)
(declare-fun source_cap_permits () Bool)
(declare-fun target_cap_permits () Bool)
(assert (= source_cap_permits target_cap_permits))

; cap_is_subset: source semantics (matches Coq)
(declare-fun source_cap_is_subset () Bool)
(declare-fun target_cap_is_subset () Bool)
(assert (= source_cap_is_subset target_cap_is_subset))

; hmac_compute: source semantics (matches Coq)
(declare-fun source_hmac_compute () Bool)
(declare-fun target_hmac_compute () Bool)
(assert (= source_hmac_compute target_hmac_compute))

; syn_cookie_generate: source semantics (matches Coq)
(declare-fun source_syn_cookie_generate () Bool)
(declare-fun target_syn_cookie_generate () Bool)
(assert (= source_syn_cookie_generate target_syn_cookie_generate))

; syn_cookie_verify: source semantics (matches Coq)
(declare-fun source_syn_cookie_verify () Bool)
(declare-fun target_syn_cookie_verify () Bool)
(assert (= source_syn_cookie_verify target_syn_cookie_verify))

; pow_hash: source semantics (matches Coq)
(declare-fun source_pow_hash () Bool)
(declare-fun target_pow_hash () Bool)
(assert (= source_pow_hash target_pow_hash))

; pow_valid: source semantics (matches Coq)
(declare-fun source_pow_valid () Bool)
(declare-fun target_pow_valid () Bool)
(assert (= source_pow_valid target_pow_valid))

; pow_verify: source semantics (matches Coq)
(declare-fun source_pow_verify () Bool)
(declare-fun target_pow_verify () Bool)
(assert (= source_pow_verify target_pow_verify))

; conn_count_by_src: source semantics (matches Coq)
(declare-fun source_conn_count_by_src () Bool)
(declare-fun target_conn_count_by_src () Bool)
(assert (= source_conn_count_by_src target_conn_count_by_src))

; conn_limit_per_src: source semantics (matches Coq)
(declare-fun source_conn_limit_per_src () Bool)
(declare-fun target_conn_limit_per_src () Bool)
(assert (= source_conn_limit_per_src target_conn_limit_per_src))

; conn_allowed: source semantics (matches Coq)
(declare-fun source_conn_allowed () Bool)
(declare-fun target_conn_allowed () Bool)
(assert (= source_conn_allowed target_conn_allowed))

; OMEGA_001_01_tb_capacity_bound: translation preserves property (matches Coq: Theorem)
(declare-fun source_OMEGA_001_01_tb_capacity_bound () Bool)
(declare-fun target_OMEGA_001_01_tb_capacity_bound () Bool)
(assert (= source_OMEGA_001_01_tb_capacity_bound target_OMEGA_001_01_tb_capacity_bound))

; OMEGA_001_02_tb_consume_decreases: translation preserves property (matches Coq: Theorem)
(declare-fun source_OMEGA_001_02_tb_consume_decreases () Bool)
(declare-fun target_OMEGA_001_02_tb_consume_decreases () Bool)
(assert (= source_OMEGA_001_02_tb_consume_decreases target_OMEGA_001_02_tb_consume_decreases))

; OMEGA_001_03_tb_consume_fails_insufficient: translation preserves property (matches Coq: Theorem)
(declare-fun source_OMEGA_001_03_tb_consume_fails_insufficient () Bool)
(declare-fun target_OMEGA_001_03_tb_consume_fails_insufficient () Bool)
(assert (= source_OMEGA_001_03_tb_consume_fails_insufficient target_OMEGA_001_03_tb_consume_fails_insufficient))

; OMEGA_001_04_tb_refill_monotone: translation preserves property (matches Coq: Theorem)
(declare-fun source_OMEGA_001_04_tb_refill_monotone () Bool)
(declare-fun target_OMEGA_001_04_tb_refill_monotone () Bool)
(assert (= source_OMEGA_001_04_tb_refill_monotone target_OMEGA_001_04_tb_refill_monotone))

; OMEGA_001_05_tb_consume_preserves_capacity: translation preserves property (matches Coq: Theorem)
(declare-fun source_OMEGA_001_05_tb_consume_preserves_capacity () Bool)
(declare-fun target_OMEGA_001_05_tb_consume_preserves_capacity () Bool)
(assert (= source_OMEGA_001_05_tb_consume_preserves_capacity target_OMEGA_001_05_tb_consume_preserves_capacity))

; OMEGA_001_06_tb_zero_cost_always_succeeds: translation preserves property (matches Coq: Theorem)
(declare-fun source_OMEGA_001_06_tb_zero_cost_always_succeeds () Bool)
(declare-fun target_OMEGA_001_06_tb_zero_cost_always_succeeds () Bool)
(assert (= source_OMEGA_001_06_tb_zero_cost_always_succeeds target_OMEGA_001_06_tb_zero_cost_always_succeeds))

; OMEGA_001_07_tb_refill_preserves_capacity: translation preserves property (matches Coq: Theorem)
(declare-fun source_OMEGA_001_07_tb_refill_preserves_capacity () Bool)
(declare-fun target_OMEGA_001_07_tb_refill_preserves_capacity () Bool)
(assert (= source_OMEGA_001_07_tb_refill_preserves_capacity target_OMEGA_001_07_tb_refill_preserves_capacity))

; OMEGA_001_08_tb_available_bound: translation preserves property (matches Coq: Theorem)
(declare-fun source_OMEGA_001_08_tb_available_bound () Bool)
(declare-fun target_OMEGA_001_08_tb_available_bound () Bool)
(assert (= source_OMEGA_001_08_tb_available_bound target_OMEGA_001_08_tb_available_bound))

; OMEGA_002_01_expired_cap_invalid: translation preserves property (matches Coq: Theorem)
(declare-fun source_OMEGA_002_01_expired_cap_invalid () Bool)
(declare-fun target_OMEGA_002_01_expired_cap_invalid () Bool)
(assert (= source_OMEGA_002_01_expired_cap_invalid target_OMEGA_002_01_expired_cap_invalid))

; OMEGA_002_02_cap_subset_reflexive: translation preserves property (matches Coq: Theorem)
(declare-fun source_OMEGA_002_02_cap_subset_reflexive () Bool)
(declare-fun target_OMEGA_002_02_cap_subset_reflexive () Bool)
(assert (= source_OMEGA_002_02_cap_subset_reflexive target_OMEGA_002_02_cap_subset_reflexive))

; OMEGA_002_03_delegation_attenuation: translation preserves property (matches Coq: Theorem)
(declare-fun source_OMEGA_002_03_delegation_attenuation () Bool)
(declare-fun target_OMEGA_002_03_delegation_attenuation () Bool)
(assert (= source_OMEGA_002_03_delegation_attenuation target_OMEGA_002_03_delegation_attenuation))

; OMEGA_002_04_delegation_permission_subset: translation preserves property (matches Coq: Theorem)
(declare-fun source_OMEGA_002_04_delegation_permission_subset () Bool)
(declare-fun target_OMEGA_002_04_delegation_permission_subset () Bool)
(assert (= source_OMEGA_002_04_delegation_permission_subset target_OMEGA_002_04_delegation_permission_subset))

; OMEGA_002_05_nondelegatable_blocks: translation preserves property (matches Coq: Theorem)
(declare-fun source_OMEGA_002_05_nondelegatable_blocks () Bool)
(declare-fun target_OMEGA_002_05_nondelegatable_blocks () Bool)
(assert (= source_OMEGA_002_05_nondelegatable_blocks target_OMEGA_002_05_nondelegatable_blocks))

; OMEGA_002_06_empty_cap_permits_nothing: translation preserves property (matches Coq: Theorem)
(declare-fun source_OMEGA_002_06_empty_cap_permits_nothing () Bool)
(declare-fun target_OMEGA_002_06_empty_cap_permits_nothing () Bool)
(assert (= source_OMEGA_002_06_empty_cap_permits_nothing target_OMEGA_002_06_empty_cap_permits_nothing))

; OMEGA_002_07_cap_permits_sound: translation preserves property (matches Coq: Theorem)
(declare-fun source_OMEGA_002_07_cap_permits_sound () Bool)
(declare-fun target_OMEGA_002_07_cap_permits_sound () Bool)
(assert (= source_OMEGA_002_07_cap_permits_sound target_OMEGA_002_07_cap_permits_sound))

; OMEGA_003_01_syn_cookie_verify_sound: translation preserves property (matches Coq: Theorem)
(declare-fun source_OMEGA_003_01_syn_cookie_verify_sound () Bool)
(declare-fun target_OMEGA_003_01_syn_cookie_verify_sound () Bool)
(assert (= source_OMEGA_003_01_syn_cookie_verify_sound target_OMEGA_003_01_syn_cookie_verify_sound))

; OMEGA_003_02_syn_cookie_wrong_secret: translation preserves property (matches Coq: Theorem)
(declare-fun source_OMEGA_003_02_syn_cookie_wrong_secret () Bool)
(declare-fun target_OMEGA_003_02_syn_cookie_wrong_secret () Bool)
(assert (= source_OMEGA_003_02_syn_cookie_wrong_secret target_OMEGA_003_02_syn_cookie_wrong_secret))

; OMEGA_003_03_syn_cookie_deterministic: translation preserves property (matches Coq: Theorem)
(declare-fun source_OMEGA_003_03_syn_cookie_deterministic () Bool)
(declare-fun target_OMEGA_003_03_syn_cookie_deterministic () Bool)
(assert (= source_OMEGA_003_03_syn_cookie_deterministic target_OMEGA_003_03_syn_cookie_deterministic))

; OMEGA_003_04_syn_cookie_stateless: translation preserves property (matches Coq: Theorem)
(declare-fun source_OMEGA_003_04_syn_cookie_stateless () Bool)
(declare-fun target_OMEGA_003_04_syn_cookie_stateless () Bool)
(assert (= source_OMEGA_003_04_syn_cookie_stateless target_OMEGA_003_04_syn_cookie_stateless))

; OMEGA_003_05_syn_cookie_ip_sensitive: translation preserves property (matches Coq: Theorem)
(declare-fun source_OMEGA_003_05_syn_cookie_ip_sensitive () Bool)
(declare-fun target_OMEGA_003_05_syn_cookie_ip_sensitive () Bool)
(assert (= source_OMEGA_003_05_syn_cookie_ip_sensitive target_OMEGA_003_05_syn_cookie_ip_sensitive))

; OMEGA_003_06_wrong_mac_rejected: translation preserves property (matches Coq: Theorem)
(declare-fun source_OMEGA_003_06_wrong_mac_rejected () Bool)
(declare-fun target_OMEGA_003_06_wrong_mac_rejected () Bool)
(assert (= source_OMEGA_003_06_wrong_mac_rejected target_OMEGA_003_06_wrong_mac_rejected))

; OMEGA_004_01_empty_table_allows: translation preserves property (matches Coq: Theorem)
(declare-fun source_OMEGA_004_01_empty_table_allows () Bool)
(declare-fun target_OMEGA_004_01_empty_table_allows () Bool)
(assert (= source_OMEGA_004_01_empty_table_allows target_OMEGA_004_01_empty_table_allows))

; OMEGA_004_02_conn_count_nonneg: translation preserves property (matches Coq: Theorem)
(declare-fun source_OMEGA_004_02_conn_count_nonneg () Bool)
(declare-fun target_OMEGA_004_02_conn_count_nonneg () Bool)
(assert (= source_OMEGA_004_02_conn_count_nonneg target_OMEGA_004_02_conn_count_nonneg))

; OMEGA_004_03_conn_count_bound: translation preserves property (matches Coq: Theorem)
(declare-fun source_OMEGA_004_03_conn_count_bound () Bool)
(declare-fun target_OMEGA_004_03_conn_count_bound () Bool)
(assert (= source_OMEGA_004_03_conn_count_bound target_OMEGA_004_03_conn_count_bound))

; OMEGA_004_04_conn_lookup_deterministic: translation preserves property (matches Coq: Theorem)
(declare-fun source_OMEGA_004_04_conn_lookup_deterministic () Bool)
(declare-fun target_OMEGA_004_04_conn_lookup_deterministic () Bool)
(assert (= source_OMEGA_004_04_conn_lookup_deterministic target_OMEGA_004_04_conn_lookup_deterministic))

; OMEGA_004_05_pow_verify_sound: translation preserves property (matches Coq: Theorem)
(declare-fun source_OMEGA_004_05_pow_verify_sound () Bool)
(declare-fun target_OMEGA_004_05_pow_verify_sound () Bool)
(assert (= source_OMEGA_004_05_pow_verify_sound target_OMEGA_004_05_pow_verify_sound))

; OMEGA_005_01_pow_deterministic: translation preserves property (matches Coq: Theorem)
(declare-fun source_OMEGA_005_01_pow_deterministic () Bool)
(declare-fun target_OMEGA_005_01_pow_deterministic () Bool)
(assert (= source_OMEGA_005_01_pow_deterministic target_OMEGA_005_01_pow_deterministic))

; OMEGA_005_02_pow_zero_difficulty_impossible: translation preserves property (matches Coq: Theorem)
(declare-fun source_OMEGA_005_02_pow_zero_difficulty_impossible () Bool)
(declare-fun target_OMEGA_005_02_pow_zero_difficulty_impossible () Bool)
(assert (= source_OMEGA_005_02_pow_zero_difficulty_impossible target_OMEGA_005_02_pow_zero_difficulty_impossible))

; OMEGA_005_03_pow_verify_complete: translation preserves property (matches Coq: Theorem)
(declare-fun source_OMEGA_005_03_pow_verify_complete () Bool)
(declare-fun target_OMEGA_005_03_pow_verify_complete () Bool)
(assert (= source_OMEGA_005_03_pow_verify_complete target_OMEGA_005_03_pow_verify_complete))

; OMEGA_005_04_pow_hash_deterministic: translation preserves property (matches Coq: Theorem)
(declare-fun source_OMEGA_005_04_pow_hash_deterministic () Bool)
(declare-fun target_OMEGA_005_04_pow_hash_deterministic () Bool)
(assert (= source_OMEGA_005_04_pow_hash_deterministic target_OMEGA_005_04_pow_hash_deterministic))

; Verify all translation validations are satisfiable
(check-sat)
(exit)
